p cnf 18 15
-41 -44 -46 -48 -66 0
-89 0
-44 -46 -48 -63 -66 0
-46 -48 -63 -66 -69 0
-41 -46 -66 -73 -97 0
-46 -63 -66 -73 -97 0
-45 -63 -98 0
-73 -102 0
-41 -46 -48 -66 -103 0
-46 -48 -63 -66 -103 0
-41 -70 -98 0
-63 -70 -98 0
-7 -63 -98 -106 0
-8 -41 -44 -46 -66 -106 0
-8 -44 -46 -63 -66 -106 0
